(set-info :smt-lib-version 2.6)
(set-info :category "crafted")
(set-logic QF_FFA)
(define-sort FF0 () (_ FiniteField 52435875175126190479447740508185965837690552500527637822603658699938581184513))
(declare-fun h () Bool)
(declare-fun e () Bool)
(declare-fun d () Bool)
(declare-fun b () Bool)
(declare-fun a () Bool)
(declare-fun g () Bool)
(declare-fun f () Bool)
(declare-fun c () Bool)
(declare-fun out () FF0)
(declare-fun _157 () FF0)
(declare-fun _156 () FF0)
(declare-fun _41 () FF0)
(declare-fun _113 () FF0)
(declare-fun _155 () FF0)
(declare-fun _154 () FF0)
(declare-fun _59 () FF0)
(declare-fun _153 () FF0)
(declare-fun _4 () FF0)
(declare-fun _152 () FF0)
(declare-fun _86 () FF0)
(declare-fun _46 () FF0)
(declare-fun _150 () FF0)
(declare-fun _141 () FF0)
(declare-fun _147 () FF0)
(declare-fun _146 () FF0)
(declare-fun _29 () FF0)
(declare-fun _28 () FF0)
(declare-fun _140 () FF0)
(declare-fun _14 () FF0)
(declare-fun _139 () FF0)
(declare-fun _70 () FF0)
(declare-fun _21 () FF0)
(declare-fun _20 () FF0)
(declare-fun _138 () FF0)
(declare-fun _107 () FF0)
(declare-fun _137 () FF0)
(declare-fun _3 () FF0)
(declare-fun _136 () FF0)
(declare-fun _134 () FF0)
(declare-fun _135 () FF0)
(declare-fun _120 () FF0)
(declare-fun _100 () FF0)
(declare-fun _75 () FF0)
(declare-fun _133 () FF0)
(declare-fun _132 () FF0)
(declare-fun _51 () FF0)
(declare-fun _130 () FF0)
(declare-fun _115 () FF0)
(declare-fun _129 () FF0)
(declare-fun _5 () FF0)
(declare-fun _128 () FF0)
(declare-fun _65 () FF0)
(declare-fun _64 () FF0)
(declare-fun _127 () FF0)
(declare-fun _50 () FF0)
(declare-fun _126 () FF0)
(declare-fun _92 () FF0)
(declare-fun _91 () FF0)
(declare-fun _125 () FF0)
(declare-fun _124 () FF0)
(declare-fun _12 () FF0)
(declare-fun _11 () FF0)
(declare-fun _123 () FF0)
(declare-fun _74 () FF0)
(declare-fun _122 () FF0)
(declare-fun _0 () FF0)
(declare-fun _121 () FF0)
(declare-fun _23 () FF0)
(declare-fun _119 () FF0)
(declare-fun _15 () FF0)
(declare-fun _118 () FF0)
(declare-fun _116 () FF0)
(declare-fun _98 () FF0)
(declare-fun _97 () FF0)
(declare-fun _112 () FF0)
(declare-fun _87 () FF0)
(declare-fun _111 () FF0)
(declare-fun _47 () FF0)
(declare-fun _110 () FF0)
(declare-fun _109 () FF0)
(declare-fun _105 () FF0)
(declare-fun _104 () FF0)
(declare-fun _7 () FF0)
(declare-fun _16 () FF0)
(declare-fun _1 () FF0)
(declare-fun _80 () FF0)
(declare-fun _37 () FF0)
(declare-fun _85 () FF0)
(declare-fun _84 () FF0)
(declare-fun _6 () FF0)
(declare-fun _83 () FF0)
(declare-fun _56 () FF0)
(declare-fun _55 () FF0)
(declare-fun _82 () FF0)
(declare-fun _81 () FF0)
(declare-fun _78 () FF0)
(declare-fun _33 () FF0)
(declare-fun _79 () FF0)
(declare-fun _77 () FF0)
(declare-fun _76 () FF0)
(declare-fun _73 () FF0)
(declare-fun _2 () FF0)
(declare-fun _58 () FF0)
(declare-fun _49 () FF0)
(declare-fun _48 () FF0)
(declare-fun _39 () FF0)
(declare-fun _45 () FF0)
(declare-fun _44 () FF0)
(declare-fun _43 () FF0)
(declare-fun _36 () FF0)
(declare-fun _35 () FF0)
(declare-fun _32 () FF0)
(declare-fun _31 () FF0)
(assert 
  (let ((let0 h))
  (let ((let1 e))
  (let ((let2 d))
  (let ((let3 (ite let0 let2 let1)))
  (let ((let4 (and let3 let0)))
  (let ((let5 b))
  (let ((let6 a))
  (let ((let7 (=> let6 let5)))
  (let ((let8 (or let6 let7)))
  (let ((let9 g))
  (let ((let10 f))
  (let ((let11 c))
  (let ((let12 (ite let11 let10 let9)))
  (let ((let13 (= let12 let8)))
  (let ((let14 (ite let12 let1 let13)))
  (let ((let15 (and let1 let7 let11 let14)))
  (let ((let16 (not let2)))
  (let ((let17 (or let4 let16 let15 let4)))
  (let ((let18 (not let14)))
  (let ((let19 (= let13 let18)))
  (let ((let20 (= let10 let5)))
  (let ((let21 (and let19 let20 let8 let7 let19)))
  (let ((let22 (and let21 let15)))
  (let ((let23 (or let0 let18 let14 let9)))
  (let ((let24 (or let23 let3)))
  (let ((let25 (ite let22 let24 let22)))
  (let ((let26 (and let11 let2)))
  (let ((let27 (= let26 let26)))
  (let ((let28 (= let27 let5)))
  (let ((let29 (ite let16 let28 let9)))
  (let ((let30 (ite let12 let23 let27)))
  (let ((let31 (or let26 let30 let11)))
  (let ((let32 (=> let20 let31)))
  (let ((let33 (or let32 let25 let25 let28)))
  (let ((let34 (and let3 let24 let15)))
  (let ((let35 (and let34 let33 let29 let25 let2)))
  (let ((let36 (or let9 let35 let17)))
  (let ((let37 (=> let22 let17)))
  (let ((let38 (ite let30 let17 let23)))
  (let ((let39 (ite let34 let38 let5)))
  (let ((let40 (or let30 let8)))
  (let ((let41 (ite let40 let0 let39)))
  (let ((let42 (= let32 let41)))
  (let ((let43 (and let42 let10 let37 let22 let37 let36)))
  (let ((let44 (=> let41 let27)))
  (let ((let45 (=> let20 let44)))
  (let ((let46 (not let42)))
  (let ((let47 (=> let38 let39)))
  (let ((let48 (= let47 let42)))
  (let ((let49 (or let41 let35 let48 let46 let45 let43)))
  (let ((let50 (not let49)))
  (let ((let51 (or let6 let21 let29 let7)))
  (let ((let52 (or let51 let13)))
  (let ((let53 (and let6 let12)))
  (let ((let54 (and let31 let31 let3 let36 let38 let23 let29 let10 let47)))
  (let ((let55 (not let4)))
  (let ((let56 (and let18 let24 let40 let32)))
  (let ((let57 (or let55 let40 let51 let56 let16 let42 let30 let55)))
  (let ((let58 (not let57)))
  (let ((let59 (ite let58 let14 let43)))
  (let ((let60 (not let59)))
  (let ((let61 (= let44 let58)))
  (let ((let62 (or let36 let21 let28 let1 let28)))
  (let ((let63 (and let62 let43)))
  (let ((let64 (=> let63 let20)))
  (let ((let65 (or let64 let61 let58 let34 let60 let54 let19 let35 let45 let54 let48 let49 let14 let51)))
  (let ((let66 (not let64)))
  (let ((let67 (not let13)))
  (let ((let68 (not let56)))
  (let ((let69 (and let68 let67 let66 let58 let65 let53 let52 let50 let50)))
  (let ((let70 out))
  (let ((let71 (as ff1 FF0)))
  (let ((let72 (= let71 let70)))
  (let ((let73 (= let72 let69)))
  (let ((let74 (as ff0 FF0)))
  (let ((let75 (= let74 let70)))
  (let ((let76 (or let72 let75)))
  (let ((let77 (and let76 let73)))
  (let ((let78 (as ff2 FF0)))
  (let ((let79 (as ff52435875175126190479447740508185965837690552500527637822603658699938581184512 FF0)))
  (let ((let80 _157))
  (let ((let81 (ff.mul let80 let79)))
  (let ((let82 _156))
  (let ((let83 (ff.mul let82 let79)))
  (let ((let84 _41))
  (let ((let85 (ff.mul let84 let79)))
  (let ((let86 (ff.add let85 let83 let81 let78)))
  (let ((let87 (ff.add let85 let71)))
  (let ((let88 (ff.add let83 let71)))
  (let ((let89 (ff.mul let88 let87)))
  (let ((let90 (= let89 let86)))
  (let ((let91 _113))
  (let ((let92 _155))
  (let ((let93 (ff.mul let92 let91)))
  (let ((let94 (= let93 let82)))
  (let ((let95 (ff.mul let92 let79)))
  (let ((let96 _154))
  (let ((let97 _59))
  (let ((let98 (ff.mul let97 let79)))
  (let ((let99 (ff.add let98 let96 let95 let71)))
  (let ((let100 (ff.add let98 let71)))
  (let ((let101 (ff.mul let96 let100)))
  (let ((let102 (= let101 let99)))
  (let ((let103 (ff.mul let96 let79)))
  (let ((let104 _153))
  (let ((let105 _4))
  (let ((let106 (ff.add let105 let104 let103)))
  (let ((let107 (ff.mul let104 let105)))
  (let ((let108 (= let107 let106)))
  (let ((let109 (ff.mul let104 let79)))
  (let ((let110 _152))
  (let ((let111 (ff.add let98 let110 let109 let71)))
  (let ((let112 (ff.mul let110 let100)))
  (let ((let113 (= let112 let111)))
  (let ((let114 (ff.mul let110 let79)))
  (let ((let115 _86))
  (let ((let116 _46))
  (let ((let117 (ff.add let116 let115 let114)))
  (let ((let118 (ff.mul let115 let116)))
  (let ((let119 (= let118 let117)))
  (let ((let120 _150))
  (let ((let121 _141))
  (let ((let122 (ff.mul let121 let121)))
  (let ((let123 (= let122 let120)))
  (let ((let124 _147))
  (let ((let125 (ff.mul let121 let91)))
  (let ((let126 (= let125 let124)))
  (let ((let127 _146))
  (let ((let128 _29))
  (let ((let129 _28))
  (let ((let130 (ff.add let129 let128)))
  (let ((let131 (ff.mul let121 let79)))
  (let ((let132 (ff.add let131 let71)))
  (let ((let133 (ff.mul let132 let130)))
  (let ((let134 (= let133 let127)))
  (let ((let135 _140))
  (let ((let136 _14))
  (let ((let137 (ff.mul let136 let79)))
  (let ((let138 (ff.add let137 let135 let131 let71)))
  (let ((let139 (ff.add let137 let71)))
  (let ((let140 (ff.mul let135 let139)))
  (let ((let141 (= let140 let138)))
  (let ((let142 (ff.mul let135 let79)))
  (let ((let143 _139))
  (let ((let144 _70))
  (let ((let145 _21))
  (let ((let146 (ff.mul let145 let79)))
  (let ((let147 _20))
  (let ((let148 (ff.mul let147 let79)))
  (let ((let149 (ff.add let148 let146 let144 let143 let142 let71)))
  (let ((let150 (ff.add let148 let146 let144 let71)))
  (let ((let151 (ff.mul let143 let150)))
  (let ((let152 (= let151 let149)))
  (let ((let153 (ff.mul let143 let79)))
  (let ((let154 _138))
  (let ((let155 _107))
  (let ((let156 (ff.mul let155 let79)))
  (let ((let157 (ff.add let156 let154 let153 let71)))
  (let ((let158 (ff.add let156 let71)))
  (let ((let159 (ff.mul let154 let158)))
  (let ((let160 (= let159 let157)))
  (let ((let161 (ff.mul let154 let79)))
  (let ((let162 _137))
  (let ((let163 _3))
  (let ((let164 (ff.mul let163 let79)))
  (let ((let165 (ff.add let164 let162 let161 let71)))
  (let ((let166 (ff.add let164 let71)))
  (let ((let167 (ff.mul let162 let166)))
  (let ((let168 (= let167 let165)))
  (let ((let169 (ff.mul let162 let79)))
  (let ((let170 _136))
  (let ((let171 _134))
  (let ((let172 (ff.add let171 let170 let169)))
  (let ((let173 (ff.mul let170 let171)))
  (let ((let174 (= let173 let172)))
  (let ((let175 (ff.mul let170 let79)))
  (let ((let176 _135))
  (let ((let177 _120))
  (let ((let178 (ff.add let177 let176 let175)))
  (let ((let179 (ff.mul let176 let177)))
  (let ((let180 (= let179 let178)))
  (let ((let181 (ff.mul let176 let79)))
  (let ((let182 _100))
  (let ((let183 (ff.add let137 let182 let181 let71)))
  (let ((let184 (ff.mul let139 let182)))
  (let ((let185 (= let184 let183)))
  (let ((let186 _75))
  (let ((let187 _133))
  (let ((let188 (ff.mul let187 let186)))
  (let ((let189 (= let188 let171)))
  (let ((let190 _132))
  (let ((let191 (ff.mul let190 let182)))
  (let ((let192 (= let191 let187)))
  (let ((let193 _51))
  (let ((let194 (ff.mul let128 let79)))
  (let ((let195 (ff.mul let129 let79)))
  (let ((let196 (ff.add let195 let194 let71)))
  (let ((let197 (ff.mul let196 let193)))
  (let ((let198 (= let197 let190)))
  (let ((let199 _130))
  (let ((let200 _115))
  (let ((let201 _129))
  (let ((let202 (ff.mul let201 let200)))
  (let ((let203 (= let202 let199)))
  (let ((let204 _5))
  (let ((let205 _128))
  (let ((let206 (ff.mul let205 let204)))
  (let ((let207 (= let206 let201)))
  (let ((let208 _65))
  (let ((let209 _64))
  (let ((let210 (ff.add let209 let208)))
  (let ((let211 _127))
  (let ((let212 (ff.mul let211 let210)))
  (let ((let213 (= let212 let205)))
  (let ((let214 _50))
  (let ((let215 _126))
  (let ((let216 (ff.mul let215 let214)))
  (let ((let217 (= let216 let211)))
  (let ((let218 _92))
  (let ((let219 _91))
  (let ((let220 (ff.add let219 let218)))
  (let ((let221 _125))
  (let ((let222 (ff.mul let221 let220)))
  (let ((let223 (= let222 let215)))
  (let ((let224 _124))
  (let ((let225 (ff.mul let224 let115)))
  (let ((let226 (= let225 let221)))
  (let ((let227 _12))
  (let ((let228 _11))
  (let ((let229 (ff.add let228 let227)))
  (let ((let230 _123))
  (let ((let231 (ff.mul let230 let229)))
  (let ((let232 (= let231 let224)))
  (let ((let233 _74))
  (let ((let234 (ff.mul let233 let233)))
  (let ((let235 (= let234 let230)))
  (let ((let236 _122))
  (let ((let237 (ff.add let147 let145)))
  (let ((let238 _0))
  (let ((let239 (ff.mul let238 let237)))
  (let ((let240 (= let239 let236)))
  (let ((let241 _121))
  (let ((let242 (ff.mul let241 let79)))
  (let ((let243 _23))
  (let ((let244 (ff.mul let243 let79)))
  (let ((let245 (ff.add let244 let177 let242 let71)))
  (let ((let246 (ff.add let244 let71)))
  (let ((let247 (ff.mul let177 let246)))
  (let ((let248 (= let247 let245)))
  (let ((let249 (ff.mul let177 let79)))
  (let ((let250 _119))
  (let ((let251 _15))
  (let ((let252 (ff.add let251 let250 let249)))
  (let ((let253 (ff.mul let250 let251)))
  (let ((let254 (= let253 let252)))
  (let ((let255 (ff.mul let250 let79)))
  (let ((let256 _118))
  (let ((let257 (ff.add let209 let208 let256 let255)))
  (let ((let258 (ff.mul let256 let210)))
  (let ((let259 (= let258 let257)))
  (let ((let260 (ff.mul let256 let79)))
  (let ((let261 (ff.add let238 let116 let260)))
  (let ((let262 (ff.mul let238 let116)))
  (let ((let263 (= let262 let261)))
  (let ((let264 _116))
  (let ((let265 (ff.add let155 let200 let79)))
  (let ((let266 (ff.mul let265 let265)))
  (let ((let267 (= let266 let264)))
  (let ((let268 (ff.mul let200 let79)))
  (let ((let269 _98))
  (let ((let270 _97))
  (let ((let271 (ff.mul let218 let79)))
  (let ((let272 (ff.mul let219 let79)))
  (let ((let273 (ff.add let272 let271 let270 let269 let268 let71)))
  (let ((let274 (ff.add let270 let269)))
  (let ((let275 (ff.add let272 let271 let71)))
  (let ((let276 (ff.mul let275 let274)))
  (let ((let277 (= let276 let273)))
  (let ((let278 _112))
  (let ((let279 (ff.mul let278 let115)))
  (let ((let280 (= let279 let91)))
  (let ((let281 _87))
  (let ((let282 _111))
  (let ((let283 (ff.mul let282 let281)))
  (let ((let284 (= let283 let278)))
  (let ((let285 _47))
  (let ((let286 _110))
  (let ((let287 (ff.mul let286 let285)))
  (let ((let288 (= let287 let282)))
  (let ((let289 _109))
  (let ((let290 (ff.mul let289 let281)))
  (let ((let291 (= let290 let286)))
  (let ((let292 (ff.mul let158 let204)))
  (let ((let293 (= let292 let289)))
  (let ((let294 _105))
  (let ((let295 (ff.mul let294 let79)))
  (let ((let296 _104))
  (let ((let297 (ff.mul let296 let79)))
  (let ((let298 (ff.add let186 let297 let295)))
  (let ((let299 (ff.mul let298 let298)))
  (let ((let300 (= let299 let155)))
  (let ((let301 (ff.mul let182 let79)))
  (let ((let302 (ff.add let301 let71)))
  (let ((let303 (ff.mul let302 let274)))
  (let ((let304 (= let303 let294)))
  (let ((let305 _7))
  (let ((let306 (ff.mul let182 let305)))
  (let ((let307 (= let306 let296)))
  (let ((let308 _16))
  (let ((let309 (ff.add let308 let148 let146 let144 let301 let71)))
  (let ((let310 (ff.mul let150 let308)))
  (let ((let311 (= let310 let309)))
  (let ((let312 _1))
  (let ((let313 _80))
  (let ((let314 (ff.mul let313 let79)))
  (let ((let315 (ff.add let314 let71)))
  (let ((let316 (ff.mul let315 let312)))
  (let ((let317 (= let316 let269)))
  (let ((let318 (ff.mul let313 let220)))
  (let ((let319 (= let318 let270)))
  (let ((let320 (ff.mul let144 let79)))
  (let ((let321 (ff.add let147 let145 let320)))
  (let ((let322 (ff.mul let321 let214)))
  (let ((let323 (= let322 let218)))
  (let ((let324 _37))
  (let ((let325 (ff.mul let150 let324)))
  (let ((let326 (= let325 let219)))
  (let ((let327 (ff.mul let281 let79)))
  (let ((let328 (ff.mul let285 let79)))
  (let ((let329 (ff.add let324 let328 let327 let71)))
  (let ((let330 (ff.add let328 let71)))
  (let ((let331 (ff.mul let330 let324)))
  (let ((let332 (= let331 let329)))
  (let ((let333 (ff.mul let115 let79)))
  (let ((let334 _85))
  (let ((let335 (ff.add let324 let334 let333)))
  (let ((let336 (ff.mul let334 let324)))
  (let ((let337 (= let336 let335)))
  (let ((let338 (ff.mul let334 let79)))
  (let ((let339 _84))
  (let ((let340 _6))
  (let ((let341 (ff.add let340 let339 let338)))
  (let ((let342 (ff.mul let340 let339)))
  (let ((let343 (= let342 let341)))
  (let ((let344 _83))
  (let ((let345 (ff.mul let344 let163)))
  (let ((let346 (= let345 let339)))
  (let ((let347 _56))
  (let ((let348 _55))
  (let ((let349 (ff.add let348 let347)))
  (let ((let350 _82))
  (let ((let351 (ff.mul let350 let349)))
  (let ((let352 (= let351 let344)))
  (let ((let353 _81))
  (let ((let354 (ff.mul let353 let210)))
  (let ((let355 (= let354 let350)))
  (let ((let356 _78))
  (let ((let357 (ff.mul let313 let356)))
  (let ((let358 (= let357 let353)))
  (let ((let359 _33))
  (let ((let360 _79))
  (let ((let361 (ff.mul let360 let359)))
  (let ((let362 (= let361 let313)))
  (let ((let363 (ff.mul let229 let193)))
  (let ((let364 (= let363 let360)))
  (let ((let365 (ff.mul let356 let79)))
  (let ((let366 _77))
  (let ((let367 (ff.add let98 let366 let365 let71)))
  (let ((let368 (ff.mul let366 let100)))
  (let ((let369 (= let368 let367)))
  (let ((let370 (ff.mul let366 let79)))
  (let ((let371 _76))
  (let ((let372 (ff.add let348 let347 let371 let370)))
  (let ((let373 (ff.mul let371 let349)))
  (let ((let374 (= let373 let372)))
  (let ((let375 (ff.mul let371 let79)))
  (let ((let376 (ff.add let348 let347 let186 let375)))
  (let ((let377 (ff.mul let186 let349)))
  (let ((let378 (= let377 let376)))
  (let ((let379 (ff.mul let186 let79)))
  (let ((let380 (ff.add let84 let233 let379)))
  (let ((let381 (ff.mul let84 let233)))
  (let ((let382 (= let381 let380)))
  (let ((let383 (ff.mul let233 let79)))
  (let ((let384 _73))
  (let ((let385 _2))
  (let ((let386 (ff.add let385 let384 let383)))
  (let ((let387 (ff.mul let384 let385)))
  (let ((let388 (= let387 let386)))
  (let ((let389 (ff.mul let384 let79)))
  (let ((let390 _58))
  (let ((let391 (ff.add let148 let146 let390 let144 let389 let71)))
  (let ((let392 (ff.mul let390 let150)))
  (let ((let393 (= let392 let391)))
  (let ((let394 (ff.mul let237 let214)))
  (let ((let395 (= let394 let144)))
  (let ((let396 (ff.mul let163 let340)))
  (let ((let397 (= let396 let208)))
  (let ((let398 (ff.mul let166 let100)))
  (let ((let399 (= let398 let209)))
  (let ((let400 (ff.mul let312 let79)))
  (let ((let401 (ff.add let400 let71)))
  (let ((let402 (ff.mul let401 let401)))
  (let ((let403 (= let402 let97)))
  (let ((let404 (ff.mul let385 let163)))
  (let ((let405 (= let404 let390)))
  (let ((let406 (ff.mul let330 let285)))
  (let ((let407 (= let406 let347)))
  (let ((let408 (ff.mul let285 let193)))
  (let ((let409 (= let408 let348)))
  (let ((let410 (ff.mul let193 let79)))
  (let ((let411 (ff.add let228 let227 let214 let410)))
  (let ((let412 (ff.mul let214 let229)))
  (let ((let413 (= let412 let411)))
  (let ((let414 (ff.mul let214 let79)))
  (let ((let415 _49))
  (let ((let416 (ff.add let340 let415 let414)))
  (let ((let417 (ff.mul let415 let340)))
  (let ((let418 (= let417 let416)))
  (let ((let419 (ff.mul let415 let79)))
  (let ((let420 _48))
  (let ((let421 (ff.add let129 let128 let420 let419)))
  (let ((let422 (ff.mul let420 let130)))
  (let ((let423 (= let422 let421)))
  (let ((let424 (ff.mul let420 let79)))
  (let ((let425 (ff.add let305 let195 let194 let424 let71)))
  (let ((let426 (ff.mul let305 let196)))
  (let ((let427 (= let426 let425)))
  (let ((let428 (ff.mul let116 let359)))
  (let ((let429 (= let428 let285)))
  (let ((let430 _39))
  (let ((let431 (ff.mul let430 let79)))
  (let ((let432 (ff.add let431 let71)))
  (let ((let433 _45))
  (let ((let434 (ff.mul let433 let432)))
  (let ((let435 (= let434 let116)))
  (let ((let436 _44))
  (let ((let437 (ff.mul let436 let251)))
  (let ((let438 (= let437 let433)))
  (let ((let439 _43))
  (let ((let440 (ff.mul let439 let308)))
  (let ((let441 (= let440 let436)))
  (let ((let442 (ff.mul let432 let87)))
  (let ((let443 (= let442 let439)))
  (let ((let444 (ff.add let400 let204)))
  (let ((let445 (ff.mul let444 let444)))
  (let ((let446 (= let445 let84)))
  (let ((let447 (ff.add let244 let129 let128)))
  (let ((let448 (ff.mul let447 let447)))
  (let ((let449 (= let448 let430)))
  (let ((let450 (ff.mul let324 let79)))
  (let ((let451 _36))
  (let ((let452 (ff.add let136 let451 let450)))
  (let ((let453 (ff.mul let451 let136)))
  (let ((let454 (= let453 let452)))
  (let ((let455 (ff.mul let451 let79)))
  (let ((let456 _35))
  (let ((let457 (ff.add let359 let456 let455)))
  (let ((let458 (ff.mul let456 let359)))
  (let ((let459 (= let458 let457)))
  (let ((let460 (ff.mul let456 let79)))
  (let ((let461 (ff.add let164 let136 let460 let71)))
  (let ((let462 (ff.mul let136 let166)))
  (let ((let463 (= let462 let461)))
  (let ((let464 _32))
  (let ((let465 (ff.mul let464 let130)))
  (let ((let466 (= let465 let359)))
  (let ((let467 _31))
  (let ((let468 (ff.mul let467 let385)))
  (let ((let469 (= let468 let464)))
  (let ((let470 (ff.mul let105 let251)))
  (let ((let471 (= let470 let467)))
  (let ((let472 (ff.add let148 let146 let71)))
  (let ((let473 (ff.mul let472 let246)))
  (let ((let474 (= let473 let128)))
  (let ((let475 (ff.mul let237 let105)))
  (let ((let476 (= let475 let129)))
  (let ((let477 (ff.mul let308 let79)))
  (let ((let478 (ff.add let477 let147 let145)))
  (let ((let479 (ff.mul let478 let478)))
  (let ((let480 (= let479 let243)))
  (let ((let481 (ff.mul let385 let79)))
  (let ((let482 (ff.add let481 let71)))
  (let ((let483 (ff.mul let482 let340)))
  (let ((let484 (= let483 let145)))
  (let ((let485 (ff.mul let385 let204)))
  (let ((let486 (= let485 let147)))
  (let ((let487 (ff.add let238 let251 let477)))
  (let ((let488 (ff.mul let238 let251)))
  (let ((let489 (= let488 let487)))
  (let ((let490 (ff.mul let251 let79)))
  (let ((let491 (ff.mul let238 let79)))
  (let ((let492 (ff.add let491 let312 let490 let71)))
  (let ((let493 (ff.add let491 let71)))
  (let ((let494 (ff.mul let493 let312)))
  (let ((let495 (= let494 let492)))
  (let ((let496 (ff.mul let229 let305)))
  (let ((let497 (= let496 let136)))
  (let ((let498 (ff.mul let305 let79)))
  (let ((let499 (ff.add let498 let71)))
  (let ((let500 (ff.mul let499 let105)))
  (let ((let501 (= let500 let227)))
  (let ((let502 (ff.mul let305 let163)))
  (let ((let503 (= let502 let228)))
  (let ((let504 (ff.mul let305 let305)))
  (let ((let505 (= let504 let305)))
  (let ((let506 (ff.mul let340 let340)))
  (let ((let507 (= let506 let340)))
  (let ((let508 (ff.mul let204 let204)))
  (let ((let509 (= let508 let204)))
  (let ((let510 (ff.mul let105 let105)))
  (let ((let511 (= let510 let105)))
  (let ((let512 (ff.mul let163 let163)))
  (let ((let513 (= let512 let163)))
  (let ((let514 (ff.mul let385 let385)))
  (let ((let515 (= let514 let385)))
  (let ((let516 (ff.mul let312 let312)))
  (let ((let517 (= let516 let312)))
  (let ((let518 (ff.mul let238 let238)))
  (let ((let519 (= let518 let238)))
  (let ((let520 (and let519 let517 let515 let513 let511 let509 let507 let505 let503 let501 let497 let495 let489 let486 let484 let480 let476 let474 let471 let469 let466 let463 let459 let454 let449 let446 let443 let441 let438 let435 let429 let427 let423 let418 let413 let409 let407 let405 let403 let399 let397 let395 let393 let388 let382 let378 let374 let369 let364 let362 let358 let355 let352 let346 let343 let337 let332 let326 let323 let319 let317 let311 let307 let304 let300 let293 let291 let288 let284 let280 let277 let267 let263 let259 let254 let248 let240 let235 let232 let226 let223 let217 let213 let207 let203 let198 let192 let189 let185 let180 let174 let168 let160 let152 let141 let134 let126 let123 let119 let113 let108 let102 let94 let90)))
  (let ((let521 (ite let2 let71 let74)))
  (let ((let522 (= let163 let521)))
  (let ((let523 (ite let9 let71 let74)))
  (let ((let524 (= let340 let523)))
  (let ((let525 (ite let0 let71 let74)))
  (let ((let526 (= let305 let525)))
  (let ((let527 (ite let5 let71 let74)))
  (let ((let528 (= let312 let527)))
  (let ((let529 (ite let10 let71 let74)))
  (let ((let530 (= let204 let529)))
  (let ((let531 (ite let11 let71 let74)))
  (let ((let532 (= let385 let531)))
  (let ((let533 (ite let6 let71 let74)))
  (let ((let534 (= let238 let533)))
  (let ((let535 (ite let1 let71 let74)))
  (let ((let536 (= let105 let535)))
  (let ((let537 (and let536 let534 let532 let530 let528 let526 let524 let522)))
  (let ((let538 (and let537 let520)))
  (let ((let539 (=> let538 let77)))
  (let ((let540 (not let539)))
  let540
)))))))))))))))))))))))))))))))))))))))))))))))))))))))))))))))))))))))))))))))))))))))))))))))))))))))))))))))))))))))))))))))))))))))))))))))))))))))))))))))))))))))))))))))))))))))))))))))))))))))))))))))))))))))))))))))))))))))))))))))))))))))))))))))))))))))))))))))))))))))))))))))))))))))))))))))))))))))))))))))))))))))))))))))))))))))))))))))))))))))))))))))))))))))))))))))))))))))))))))))))))))))))))))))))))))))))))))))))))))))))))))))))))))))))))))))))))))))))))))))))))))))))))))))))))))))))))))))))))))))))))))))))))))))))))))
)
(check-sat)
